0 83 28 45 16 24 58 68 55 32
75 0 24 72 50 56 31 44 7 67
77 28 0 80 33 37 94 66 98 89
81 69 26 0 19 92 68 44 86 89
67 87 5 93 0 92 46 86 27 98
78 7 55 63 85 0 87 58 75 5
11 28 75 7 60 95 0 37 31 92
99 14 40 26 73 30 51 0 41 37
97 67 60 78 63 76 10 76 0 11
61 50 96 4 55 90 54 42 94 0
